31, 8482
10093, 453
6700, 106
8179, 252
9189, 485
12156, 376
5901, 446
10137, 103
9865, 357
2850, 372
10693, 286
8160, 171
11298, 370
6386, 157
8230, 282
8800, 445
12452, 166
9664, 316
10744, 287
10103, 106
6133, 375
7020, 489
11124, 177
10181, 492
3765, 225
7788, 343
8094, 223
10599, 438
10251, 489
10092, 362
3251, 466
11344, 352